p cnf 7230 16
-1918 2629 0
2636 2637 0
1926 -2637 0
-1926 -2636 0
2634 2635 0
1924 -2635 0
-1924 -2634 0
2632 2633 0
1922 -2633 0
-1922 -2632 0
2630 2631 0
1920 -2631 0
-1920 -2630 0
1928 -2639 0
-2628 -2629 0
2628 2629 0
